(set-option :auto-config false)
(set-option :model true)

(set-option :smt.mbqi false)

(define-sort Str () Int)
(declare-fun strLen (Str) Int)
(declare-fun subString (Str Int Int) Str)
(declare-fun concatString (Str Str) Str)
(define-sort Elt () Int)
(define-sort LSet () (Array Elt Bool))
(define-sort Map () (Array Elt Elt))
(define-fun smt_map_sel ((m Map) (k Elt)) Elt (select m k))
(define-fun smt_map_sto ((m Map) (k Elt) (v Elt)) Map (store m k v))
(define-fun smt_map_cup ((m1 Map) (m2 Map)) Map ((_ map (+ (Elt Elt) Elt)) m1 m2))
(define-fun smt_map_prj ((s LSet) (m Map)) Map ((_ map (ite (Bool Elt Elt) Elt)) s m ((as const (Array Elt Elt)) 0)))
(define-fun smt_map_to_set ((m Map)) LSet ((_ map (> (Elt Elt) Bool)) m ((as const (Array Elt Elt)) 0)))
(define-fun smt_map_max ((m1 Map) (m2 Map)) Map (lambda ((i Int)) (ite (> (select m1 i) (select m2 i)) (select m1 i) (select m2 i))))
(define-fun smt_map_min ((m1 Map) (m2 Map)) Map (lambda ((i Int)) (ite (< (select m1 i) (select m2 i)) (select m1 i) (select m2 i))))
(define-fun smt_map_shift ((n Int) (m Map)) Map (lambda ((i Int)) (select m (- i n))))
(define-fun smt_map_def ((v Elt)) Map ((as const (Map)) v))
(define-fun bool_to_int ((b Bool)) Int (ite b 1 0))
(define-fun Z3_OP_MUL ((x Int) (y Int)) Int (* x y))
(define-fun Z3_OP_DIV ((x Int) (y Int)) Int (div x y))
(declare-fun x () Int)
(declare-fun q () Int)
(declare-fun opRes () Int)
(declare-fun cast_as () Int)
(declare-fun opRes$35$$35$1 () Int)
(declare-fun cast_as_int () Int)
(declare-fun apply$35$$35$4 (Int Int) (_ BitVec 32))
(declare-fun apply$35$$35$16 (Int Str) (_ BitVec 32))
(declare-fun apply$35$$35$32 (Int (_ BitVec 64)) Str)
(declare-fun apply$35$$35$10 (Int Bool) (_ BitVec 32))
(declare-fun apply$35$$35$8 (Int Bool) Str)
(declare-fun apply$35$$35$14 (Int Str) Str)
(declare-fun apply$35$$35$21 (Int (Array Int Bool)) (Array Int Bool))
(declare-fun apply$35$$35$27 (Int (_ BitVec 32)) (Array Int Bool))
(declare-fun apply$35$$35$0 (Int Int) Int)
(declare-fun apply$35$$35$25 (Int (_ BitVec 32)) Bool)
(declare-fun apply$35$$35$31 (Int (_ BitVec 64)) Bool)
(declare-fun apply$35$$35$1 (Int Int) Bool)
(declare-fun apply$35$$35$34 (Int (_ BitVec 64)) (_ BitVec 32))
(declare-fun apply$35$$35$13 (Int Str) Bool)
(declare-fun apply$35$$35$20 (Int (Array Int Bool)) Str)
(declare-fun apply$35$$35$11 (Int Bool) (_ BitVec 64))
(declare-fun apply$35$$35$5 (Int Int) (_ BitVec 64))
(declare-fun apply$35$$35$33 (Int (_ BitVec 64)) (Array Int Bool))
(declare-fun apply$35$$35$30 (Int (_ BitVec 64)) Int)
(declare-fun apply$35$$35$24 (Int (_ BitVec 32)) Int)
(declare-fun apply$35$$35$28 (Int (_ BitVec 32)) (_ BitVec 32))
(declare-fun apply$35$$35$23 (Int (Array Int Bool)) (_ BitVec 64))
(declare-fun apply$35$$35$26 (Int (_ BitVec 32)) Str)
(declare-fun apply$35$$35$12 (Int Str) Int)
(declare-fun apply$35$$35$7 (Int Bool) Bool)
(declare-fun apply$35$$35$17 (Int Str) (_ BitVec 64))
(declare-fun apply$35$$35$15 (Int Str) (Array Int Bool))
(declare-fun apply$35$$35$18 (Int (Array Int Bool)) Int)
(declare-fun apply$35$$35$6 (Int Bool) Int)
(declare-fun apply$35$$35$9 (Int Bool) (Array Int Bool))
(declare-fun apply$35$$35$3 (Int Int) (Array Int Bool))
(declare-fun apply$35$$35$29 (Int (_ BitVec 32)) (_ BitVec 64))
(declare-fun apply$35$$35$2 (Int Int) Str)
(declare-fun apply$35$$35$22 (Int (Array Int Bool)) (_ BitVec 32))
(declare-fun apply$35$$35$35 (Int (_ BitVec 64)) (_ BitVec 64))
(declare-fun apply$35$$35$19 (Int (Array Int Bool)) Bool)
(declare-fun coerce$35$$35$4 (Int) (_ BitVec 32))
(declare-fun coerce$35$$35$16 (Str) (_ BitVec 32))
(declare-fun coerce$35$$35$32 ((_ BitVec 64)) Str)
(declare-fun coerce$35$$35$10 (Bool) (_ BitVec 32))
(declare-fun coerce$35$$35$8 (Bool) Str)
(declare-fun coerce$35$$35$14 (Str) Str)
(declare-fun coerce$35$$35$21 ((Array Int Bool)) (Array Int Bool))
(declare-fun coerce$35$$35$27 ((_ BitVec 32)) (Array Int Bool))
(declare-fun coerce$35$$35$0 (Int) Int)
(declare-fun coerce$35$$35$25 ((_ BitVec 32)) Bool)
(declare-fun coerce$35$$35$31 ((_ BitVec 64)) Bool)
(declare-fun coerce$35$$35$1 (Int) Bool)
(declare-fun coerce$35$$35$34 ((_ BitVec 64)) (_ BitVec 32))
(declare-fun coerce$35$$35$13 (Str) Bool)
(declare-fun coerce$35$$35$20 ((Array Int Bool)) Str)
(declare-fun coerce$35$$35$11 (Bool) (_ BitVec 64))
(declare-fun coerce$35$$35$5 (Int) (_ BitVec 64))
(declare-fun coerce$35$$35$33 ((_ BitVec 64)) (Array Int Bool))
(declare-fun coerce$35$$35$30 ((_ BitVec 64)) Int)
(declare-fun coerce$35$$35$24 ((_ BitVec 32)) Int)
(declare-fun coerce$35$$35$28 ((_ BitVec 32)) (_ BitVec 32))
(declare-fun coerce$35$$35$23 ((Array Int Bool)) (_ BitVec 64))
(declare-fun coerce$35$$35$26 ((_ BitVec 32)) Str)
(declare-fun coerce$35$$35$12 (Str) Int)
(declare-fun coerce$35$$35$7 (Bool) Bool)
(declare-fun coerce$35$$35$17 (Str) (_ BitVec 64))
(declare-fun coerce$35$$35$15 (Str) (Array Int Bool))
(declare-fun coerce$35$$35$18 ((Array Int Bool)) Int)
(declare-fun coerce$35$$35$6 (Bool) Int)
(declare-fun coerce$35$$35$9 (Bool) (Array Int Bool))
(declare-fun coerce$35$$35$3 (Int) (Array Int Bool))
(declare-fun coerce$35$$35$29 ((_ BitVec 32)) (_ BitVec 64))
(declare-fun coerce$35$$35$2 (Int) Str)
(declare-fun coerce$35$$35$22 ((Array Int Bool)) (_ BitVec 32))
(declare-fun coerce$35$$35$35 ((_ BitVec 64)) (_ BitVec 64))
(declare-fun coerce$35$$35$19 ((Array Int Bool)) Bool)
(declare-fun smt_lambda$35$$35$4 (Int (_ BitVec 32)) Int)
(declare-fun smt_lambda$35$$35$16 (Str (_ BitVec 32)) Int)
(declare-fun smt_lambda$35$$35$32 ((_ BitVec 64) Str) Int)
(declare-fun smt_lambda$35$$35$10 (Bool (_ BitVec 32)) Int)
(declare-fun smt_lambda$35$$35$8 (Bool Str) Int)
(declare-fun smt_lambda$35$$35$14 (Str Str) Int)
(declare-fun smt_lambda$35$$35$21 ((Array Int Bool) (Array Int Bool)) Int)
(declare-fun smt_lambda$35$$35$27 ((_ BitVec 32) (Array Int Bool)) Int)
(declare-fun smt_lambda$35$$35$0 (Int Int) Int)
(declare-fun smt_lambda$35$$35$25 ((_ BitVec 32) Bool) Int)
(declare-fun smt_lambda$35$$35$31 ((_ BitVec 64) Bool) Int)
(declare-fun smt_lambda$35$$35$1 (Int Bool) Int)
(declare-fun smt_lambda$35$$35$34 ((_ BitVec 64) (_ BitVec 32)) Int)
(declare-fun smt_lambda$35$$35$13 (Str Bool) Int)
(declare-fun smt_lambda$35$$35$20 ((Array Int Bool) Str) Int)
(declare-fun smt_lambda$35$$35$11 (Bool (_ BitVec 64)) Int)
(declare-fun smt_lambda$35$$35$5 (Int (_ BitVec 64)) Int)
(declare-fun smt_lambda$35$$35$33 ((_ BitVec 64) (Array Int Bool)) Int)
(declare-fun smt_lambda$35$$35$30 ((_ BitVec 64) Int) Int)
(declare-fun smt_lambda$35$$35$24 ((_ BitVec 32) Int) Int)
(declare-fun smt_lambda$35$$35$28 ((_ BitVec 32) (_ BitVec 32)) Int)
(declare-fun smt_lambda$35$$35$23 ((Array Int Bool) (_ BitVec 64)) Int)
(declare-fun smt_lambda$35$$35$26 ((_ BitVec 32) Str) Int)
(declare-fun smt_lambda$35$$35$12 (Str Int) Int)
(declare-fun smt_lambda$35$$35$7 (Bool Bool) Int)
(declare-fun smt_lambda$35$$35$17 (Str (_ BitVec 64)) Int)
(declare-fun smt_lambda$35$$35$15 (Str (Array Int Bool)) Int)
(declare-fun smt_lambda$35$$35$18 ((Array Int Bool) Int) Int)
(declare-fun smt_lambda$35$$35$6 (Bool Int) Int)
(declare-fun smt_lambda$35$$35$9 (Bool (Array Int Bool)) Int)
(declare-fun smt_lambda$35$$35$3 (Int (Array Int Bool)) Int)
(declare-fun smt_lambda$35$$35$29 ((_ BitVec 32) (_ BitVec 64)) Int)
(declare-fun smt_lambda$35$$35$2 (Int Str) Int)
(declare-fun smt_lambda$35$$35$22 ((Array Int Bool) (_ BitVec 32)) Int)
(declare-fun smt_lambda$35$$35$35 ((_ BitVec 64) (_ BitVec 64)) Int)
(declare-fun smt_lambda$35$$35$19 ((Array Int Bool) Bool) Int)
(declare-fun lam_arg$35$$35$1$35$$35$0 () Int)
(declare-fun lam_arg$35$$35$2$35$$35$0 () Int)
(declare-fun lam_arg$35$$35$3$35$$35$0 () Int)
(declare-fun lam_arg$35$$35$4$35$$35$0 () Int)
(declare-fun lam_arg$35$$35$5$35$$35$0 () Int)
(declare-fun lam_arg$35$$35$6$35$$35$0 () Int)
(declare-fun lam_arg$35$$35$7$35$$35$0 () Int)
(declare-fun lam_arg$35$$35$1$35$$35$30 () (_ BitVec 64))
(declare-fun lam_arg$35$$35$2$35$$35$30 () (_ BitVec 64))
(declare-fun lam_arg$35$$35$3$35$$35$30 () (_ BitVec 64))
(declare-fun lam_arg$35$$35$4$35$$35$30 () (_ BitVec 64))
(declare-fun lam_arg$35$$35$5$35$$35$30 () (_ BitVec 64))
(declare-fun lam_arg$35$$35$6$35$$35$30 () (_ BitVec 64))
(declare-fun lam_arg$35$$35$7$35$$35$30 () (_ BitVec 64))
(declare-fun lam_arg$35$$35$1$35$$35$24 () (_ BitVec 32))
(declare-fun lam_arg$35$$35$2$35$$35$24 () (_ BitVec 32))
(declare-fun lam_arg$35$$35$3$35$$35$24 () (_ BitVec 32))
(declare-fun lam_arg$35$$35$4$35$$35$24 () (_ BitVec 32))
(declare-fun lam_arg$35$$35$5$35$$35$24 () (_ BitVec 32))
(declare-fun lam_arg$35$$35$6$35$$35$24 () (_ BitVec 32))
(declare-fun lam_arg$35$$35$7$35$$35$24 () (_ BitVec 32))
(declare-fun lam_arg$35$$35$1$35$$35$12 () Str)
(declare-fun lam_arg$35$$35$2$35$$35$12 () Str)
(declare-fun lam_arg$35$$35$3$35$$35$12 () Str)
(declare-fun lam_arg$35$$35$4$35$$35$12 () Str)
(declare-fun lam_arg$35$$35$5$35$$35$12 () Str)
(declare-fun lam_arg$35$$35$6$35$$35$12 () Str)
(declare-fun lam_arg$35$$35$7$35$$35$12 () Str)
(declare-fun lam_arg$35$$35$1$35$$35$18 () (Array Int Bool))
(declare-fun lam_arg$35$$35$2$35$$35$18 () (Array Int Bool))
(declare-fun lam_arg$35$$35$3$35$$35$18 () (Array Int Bool))
(declare-fun lam_arg$35$$35$4$35$$35$18 () (Array Int Bool))
(declare-fun lam_arg$35$$35$5$35$$35$18 () (Array Int Bool))
(declare-fun lam_arg$35$$35$6$35$$35$18 () (Array Int Bool))
(declare-fun lam_arg$35$$35$7$35$$35$18 () (Array Int Bool))
(declare-fun lam_arg$35$$35$1$35$$35$6 () Bool)
(declare-fun lam_arg$35$$35$2$35$$35$6 () Bool)
(declare-fun lam_arg$35$$35$3$35$$35$6 () Bool)
(declare-fun lam_arg$35$$35$4$35$$35$6 () Bool)
(declare-fun lam_arg$35$$35$5$35$$35$6 () Bool)
(declare-fun lam_arg$35$$35$6$35$$35$6 () Bool)
(declare-fun lam_arg$35$$35$7$35$$35$6 () Bool)
(push 1)
(define-fun b$36$$35$$35$1 () Bool (= q 10))
(define-fun b$36$$35$$35$2 () Bool (= opRes (+ q x)))
(define-fun b$36$$35$$35$3 () Bool (= opRes$35$$35$1 (+ q x)))
(push 1)
(push 1)
(assert (and true b$36$$35$$35$1 b$36$$35$$35$2 b$36$$35$$35$3))
(push 1)
(assert (not (= opRes$35$$35$1 x)))
(check-sat)
; SMT Says: Sat
(pop 1)
(pop 1)
(pop 1)
(pop 1)
